p cnf 0 0
c K couleurs
17 19 21 23 25 27 29 31 33 35 37 39 41 43 45 47 49 0
18 20 22 24 26 28 30 32 34 36 38 40 42 44 46 48 50 0
1 0
-18 0
c 1 color par vertex et au plus 1
17 18 0
-18 -17 0
19 20 0
-20 -19 0
21 22 0
-22 -21 0
23 24 0
-24 -23 0
25 26 0
-26 -25 0
27 28 0
-28 -27 0
29 30 0
-30 -29 0
31 32 0
-32 -31 0
33 34 0
-34 -33 0
35 36 0
-36 -35 0
37 38 0
-38 -37 0
39 40 0
-40 -39 0
41 42 0
-42 -41 0
43 44 0
-44 -43 0
45 46 0
-46 -45 0
47 48 0
-48 -47 0
49 50 0
-50 -49 0
c gc coresp to G
-17 -20 51 0
-17 -20 -52 1 0
-17 -20 52 -1 0
-18 -19 51 0
-18 -19 -52 1 0
-18 -19 52 -1 0
-19 -22 51 0
-19 -22 -52 2 0
-19 -22 52 -2 0
-20 -21 51 0
-20 -21 -52 2 0
-20 -21 52 -2 0
-21 -24 51 0
-21 -24 -52 3 0
-21 -24 52 -3 0
-22 -23 51 0
-22 -23 -52 3 0
-22 -23 52 -3 0
-23 -26 51 0
-23 -26 -52 4 0
-23 -26 52 -4 0
-24 -25 51 0
-24 -25 -52 4 0
-24 -25 52 -4 0
-25 -28 51 0
-25 -28 -52 5 0
-25 -28 52 -5 0
-26 -27 51 0
-26 -27 -52 5 0
-26 -27 52 -5 0
-27 -30 51 0
-27 -30 -52 6 0
-27 -30 52 -6 0
-28 -29 51 0
-28 -29 -52 6 0
-28 -29 52 -6 0
-29 -32 51 0
-29 -32 -52 7 0
-29 -32 52 -7 0
-30 -31 51 0
-30 -31 -52 7 0
-30 -31 52 -7 0
-31 -34 51 0
-31 -34 -52 8 0
-31 -34 52 -8 0
-32 -33 51 0
-32 -33 -52 8 0
-32 -33 52 -8 0
-33 -36 51 0
-33 -36 -52 9 0
-33 -36 52 -9 0
-34 -35 51 0
-34 -35 -52 9 0
-34 -35 52 -9 0
-35 -38 51 0
-35 -38 -52 10 0
-35 -38 52 -10 0
-36 -37 51 0
-36 -37 -52 10 0
-36 -37 52 -10 0
-37 -40 51 0
-37 -40 -52 11 0
-37 -40 52 -11 0
-38 -39 51 0
-38 -39 -52 11 0
-38 -39 52 -11 0
-39 -42 51 0
-39 -42 -52 12 0
-39 -42 52 -12 0
-40 -41 51 0
-40 -41 -52 12 0
-40 -41 52 -12 0
-41 -44 51 0
-41 -44 -52 13 0
-41 -44 52 -13 0
-42 -43 51 0
-42 -43 -52 13 0
-42 -43 52 -13 0
-43 -46 51 0
-43 -46 -52 14 0
-43 -46 52 -14 0
-44 -45 51 0
-44 -45 -52 14 0
-44 -45 52 -14 0
-45 -48 51 0
-45 -48 -52 15 0
-45 -48 52 -15 0
-46 -47 51 0
-46 -47 -52 15 0
-46 -47 52 -15 0
-47 -50 51 0
-47 -50 -52 16 0
-47 -50 52 -16 0
-48 -49 51 0
-48 -49 -52 16 0
-48 -49 52 -16 0
c X
-54 17 0
-53 17 0
-54 20 0
-53 20 0
-54 1 0
-53 -1 0
54 -17 -20 -1 0
53 -17 -20 1 0
-56 18 0
-55 18 0
-56 19 0
-55 19 0
-56 1 0
-55 -1 0
56 -18 -19 -1 0
55 -18 -19 1 0
-58 19 0
-57 19 0
-58 22 0
-57 22 0
-58 2 0
-57 -2 0
58 -19 -22 -2 0
57 -19 -22 2 0
-60 20 0
-59 20 0
-60 21 0
-59 21 0
-60 2 0
-59 -2 0
60 -20 -21 -2 0
59 -20 -21 2 0
-62 21 0
-61 21 0
-62 24 0
-61 24 0
-62 3 0
-61 -3 0
62 -21 -24 -3 0
61 -21 -24 3 0
-64 22 0
-63 22 0
-64 23 0
-63 23 0
-64 3 0
-63 -3 0
64 -22 -23 -3 0
63 -22 -23 3 0
-66 23 0
-65 23 0
-66 26 0
-65 26 0
-66 4 0
-65 -4 0
66 -23 -26 -4 0
65 -23 -26 4 0
-68 24 0
-67 24 0
-68 25 0
-67 25 0
-68 4 0
-67 -4 0
68 -24 -25 -4 0
67 -24 -25 4 0
-70 25 0
-69 25 0
-70 28 0
-69 28 0
-70 5 0
-69 -5 0
70 -25 -28 -5 0
69 -25 -28 5 0
-72 26 0
-71 26 0
-72 27 0
-71 27 0
-72 5 0
-71 -5 0
72 -26 -27 -5 0
71 -26 -27 5 0
-74 27 0
-73 27 0
-74 30 0
-73 30 0
-74 6 0
-73 -6 0
74 -27 -30 -6 0
73 -27 -30 6 0
-76 28 0
-75 28 0
-76 29 0
-75 29 0
-76 6 0
-75 -6 0
76 -28 -29 -6 0
75 -28 -29 6 0
-78 29 0
-77 29 0
-78 32 0
-77 32 0
-78 7 0
-77 -7 0
78 -29 -32 -7 0
77 -29 -32 7 0
-80 30 0
-79 30 0
-80 31 0
-79 31 0
-80 7 0
-79 -7 0
80 -30 -31 -7 0
79 -30 -31 7 0
-82 31 0
-81 31 0
-82 34 0
-81 34 0
-82 8 0
-81 -8 0
82 -31 -34 -8 0
81 -31 -34 8 0
-84 32 0
-83 32 0
-84 33 0
-83 33 0
-84 8 0
-83 -8 0
84 -32 -33 -8 0
83 -32 -33 8 0
-86 33 0
-85 33 0
-86 36 0
-85 36 0
-86 9 0
-85 -9 0
86 -33 -36 -9 0
85 -33 -36 9 0
-88 34 0
-87 34 0
-88 35 0
-87 35 0
-88 9 0
-87 -9 0
88 -34 -35 -9 0
87 -34 -35 9 0
-90 35 0
-89 35 0
-90 38 0
-89 38 0
-90 10 0
-89 -10 0
90 -35 -38 -10 0
89 -35 -38 10 0
-92 36 0
-91 36 0
-92 37 0
-91 37 0
-92 10 0
-91 -10 0
92 -36 -37 -10 0
91 -36 -37 10 0
-94 37 0
-93 37 0
-94 40 0
-93 40 0
-94 11 0
-93 -11 0
94 -37 -40 -11 0
93 -37 -40 11 0
-96 38 0
-95 38 0
-96 39 0
-95 39 0
-96 11 0
-95 -11 0
96 -38 -39 -11 0
95 -38 -39 11 0
-98 39 0
-97 39 0
-98 42 0
-97 42 0
-98 12 0
-97 -12 0
98 -39 -42 -12 0
97 -39 -42 12 0
-100 40 0
-99 40 0
-100 41 0
-99 41 0
-100 12 0
-99 -12 0
100 -40 -41 -12 0
99 -40 -41 12 0
-102 41 0
-101 41 0
-102 44 0
-101 44 0
-102 13 0
-101 -13 0
102 -41 -44 -13 0
101 -41 -44 13 0
-104 42 0
-103 42 0
-104 43 0
-103 43 0
-104 13 0
-103 -13 0
104 -42 -43 -13 0
103 -42 -43 13 0
-106 43 0
-105 43 0
-106 46 0
-105 46 0
-106 14 0
-105 -14 0
106 -43 -46 -14 0
105 -43 -46 14 0
-108 44 0
-107 44 0
-108 45 0
-107 45 0
-108 14 0
-107 -14 0
108 -44 -45 -14 0
107 -44 -45 14 0
-110 45 0
-109 45 0
-110 48 0
-109 48 0
-110 15 0
-109 -15 0
110 -45 -48 -15 0
109 -45 -48 15 0
-112 46 0
-111 46 0
-112 47 0
-111 47 0
-112 15 0
-111 -15 0
112 -46 -47 -15 0
111 -46 -47 15 0
-114 47 0
-113 47 0
-114 50 0
-113 50 0
-114 16 0
-113 -16 0
114 -47 -50 -16 0
113 -47 -50 16 0
-116 48 0
-115 48 0
-116 49 0
-115 49 0
-116 16 0
-115 -16 0
116 -48 -49 -16 0
115 -48 -49 16 0
c x suite
-51 -52 54 56 58 60 62 64 66 68 70 72 74 76 78 80 82 84 86 88 90 92 94 96 98 100 102 104 106 108 110 112 114 116 0
-51 52 53 55 57 59 61 63 65 67 69 71 73 75 77 79 81 83 85 87 89 91 93 95 97 99 101 103 105 107 109 111 113 115 0
c proper colo
-17 -19 0
-18 -20 0
-19 -21 0
-20 -22 0
-21 -23 0
-22 -24 0
-23 -25 0
-24 -26 0
-25 -27 0
-26 -28 0
-27 -29 0
-28 -30 0
-29 -31 0
-30 -32 0
-31 -33 0
-32 -34 0
-33 -35 0
-34 -36 0
-35 -37 0
-36 -38 0
-37 -39 0
-38 -40 0
-39 -41 0
-40 -42 0
-41 -43 0
-42 -44 0
-43 -45 0
-44 -46 0
-45 -47 0
-46 -48 0
-47 -49 0
-48 -50 0
51 0
